16 32
1 2 5
1 5 5
2 3 1
2 6 1
3 4 3
3 7 3
4 8 5
5 6 5
5 9 5
6 7 3
6 10 5
7 8 3
7 11 3
8 12 2
9 10 5
9 13 1
10 11 1
10 14 1
11 12 3
11 15 3
12 16 4
13 14 3
14 15 3
15 16 1
1 13 1
2 14 3
3 15 1
4 16 2
1 4 5
5 8 5
9 12 4
13 16 2
